33D32945 STP File, STP Format Version 1.0

SECTION Comment
Name	"MWCS-I-D-n-500-a-0.62-d-0.25-e-0.25"
Creator	"CWI_LS_GWK"
Comment	"converted from format used in Alvarez-Miranda et al., based on the random geometric instances of Johnson et al."
END

SECTION Graph
Nodes  500
Edges  2597
E 1 17
E 1 319
E 1 322
E 2 5
E 2 55
E 2 75
E 2 112
E 2 120
E 2 174
E 2 188
E 2 198
E 2 254
E 2 354
E 3 101
E 3 140
E 3 202
E 3 259
E 3 261
E 3 268
E 3 276
E 3 293
E 3 417
E 3 422
E 3 429
E 3 444
E 4 85
E 4 147
E 4 197
E 4 208
E 4 237
E 4 271
E 4 379
E 4 385
E 5 18
E 5 20
E 5 35
E 5 88
E 5 136
E 5 146
E 5 183
E 5 280
E 5 286
E 5 381
E 5 418
E 5 442
E 5 450
E 5 477
E 6 51
E 6 55
E 6 135
E 6 174
E 6 188
E 6 198
E 6 275
E 6 291
E 6 342
E 6 498
E 7 37
E 7 49
E 7 63
E 7 74
E 7 149
E 7 160
E 7 165
E 7 302
E 7 306
E 7 349
E 7 444
E 7 483
E 8 213
E 8 263
E 9 64
E 9 109
E 9 137
E 9 143
E 9 172
E 9 189
E 9 248
E 9 265
E 9 296
E 9 298
E 9 389
E 9 392
E 9 451
E 10 43
E 10 57
E 10 93
E 10 205
E 10 239
E 10 267
E 10 391
E 10 453
E 10 461
E 10 466
E 10 497
E 11 256
E 11 446
E 12 148
E 12 295
E 12 310
E 12 365
E 12 490
E 13 172
E 13 189
E 13 223
E 13 265
E 13 296
E 13 324
E 13 366
E 13 389
E 13 392
E 13 440
E 13 451
E 13 469
E 14 14
E 14 101
E 14 184
E 14 261
E 14 331
E 14 372
E 14 429
E 14 438
E 14 476
E 15 101
E 15 114
E 15 116
E 15 184
E 15 255
E 15 261
E 15 331
E 15 372
E 15 429
E 16 47
E 16 87
E 16 108
E 16 120
E 16 163
E 16 180
E 16 186
E 16 229
E 16 252
E 16 258
E 16 354
E 16 361
E 16 400
E 16 433
E 16 455
E 17 70
E 17 72
E 17 141
E 17 157
E 17 159
E 17 282
E 17 316
E 17 368
E 18 108
E 18 163
E 18 173
E 18 224
E 18 233
E 18 299
E 18 303
E 18 319
E 18 322
E 18 369
E 18 376
E 18 387
E 18 454
E 18 455
E 18 487
E 19 25
E 19 92
E 19 117
E 19 176
E 19 183
E 19 230
E 19 245
E 19 286
E 19 377
E 19 381
E 19 418
E 19 468
E 19 477
E 20 42
E 20 69
E 20 72
E 20 124
E 20 157
E 20 159
E 20 167
E 20 190
E 20 191
E 20 216
E 20 412
E 21 35
E 21 88
E 21 136
E 21 146
E 21 195
E 21 257
E 21 280
E 21 381
E 21 418
E 21 442
E 21 450
E 22 68
E 22 253
E 22 273
E 22 474
E 22 484
E 23 80
E 23 97
E 23 125
E 23 221
E 23 272
E 23 405
E 23 463
E 23 473
E 24 36
E 24 72
E 24 80
E 24 98
E 24 100
E 24 113
E 24 187
E 24 215
E 24 386
E 24 402
E 24 436
E 25 204
E 25 264
E 25 339
E 25 479
E 26 92
E 26 117
E 26 176
E 26 183
E 26 185
E 26 245
E 26 281
E 26 468
E 28 40
E 28 42
E 28 69
E 28 119
E 28 124
E 28 161
E 28 167
E 28 259
E 28 268
E 28 276
E 28 293
E 28 333
E 28 367
E 28 417
E 28 435
E 29 33
E 29 86
E 29 154
E 29 181
E 29 199
E 29 288
E 29 312
E 29 321
E 29 434
E 30 65
E 30 225
E 30 388
E 30 475
E 30 496
E 31 53
E 31 67
E 31 192
E 31 263
E 31 323
E 31 384
E 31 430
E 31 441
E 31 447
E 31 449
E 32 131
E 32 156
E 32 294
E 32 394
E 32 427
E 32 428
E 32 432
E 32 482
E 32 491
E 33 78
E 33 151
E 33 219
E 33 231
E 33 304
E 33 393
E 34 86
E 34 154
E 34 181
E 34 199
E 34 288
E 34 312
E 34 321
E 34 335
E 34 362
E 34 425
E 34 434
E 35 66
E 35 89
E 35 116
E 35 118
E 35 123
E 35 127
E 35 228
E 35 232
E 35 255
E 35 269
E 35 277
E 35 315
E 35 356
E 35 380
E 35 413
E 35 456
E 36 88
E 36 136
E 36 146
E 36 226
E 36 280
E 36 381
E 36 418
E 36 442
E 36 450
E 37 72
E 37 80
E 37 98
E 37 100
E 37 113
E 37 191
E 37 386
E 37 402
E 37 436
E 38 49
E 38 58
E 38 60
E 38 63
E 38 149
E 38 165
E 38 306
E 38 330
E 38 349
E 38 439
E 38 493
E 39 45
E 39 77
E 39 103
E 39 107
E 39 214
E 39 218
E 39 274
E 39 305
E 39 415
E 39 423
E 40 128
E 40 131
E 40 156
E 40 193
E 40 287
E 40 294
E 40 348
E 40 388
E 41 42
E 41 69
E 41 119
E 41 124
E 41 161
E 41 167
E 41 259
E 41 276
E 41 293
E 41 367
E 41 417
E 41 435
E 42 74
E 42 96
E 42 126
E 42 178
E 42 196
E 42 301
E 42 306
E 42 338
E 42 409
E 42 483
E 43 69
E 43 119
E 43 124
E 43 157
E 43 159
E 43 161
E 43 167
E 43 190
E 43 202
E 43 259
E 43 276
E 43 367
E 43 412
E 44 57
E 44 199
E 44 203
E 44 251
E 44 288
E 44 453
E 44 461
E 44 466
E 45 158
E 45 166
E 45 271
E 45 326
E 45 353
E 45 360
E 45 385
E 45 470
E 46 103
E 46 107
E 46 200
E 46 214
E 46 305
E 46 401
E 46 415
E 47 52
E 47 60
E 47 99
E 47 144
E 47 212
E 47 333
E 47 336
E 47 370
E 47 459
E 47 485
E 48 87
E 48 108
E 48 163
E 48 180
E 48 186
E 48 229
E 48 252
E 48 258
E 48 354
E 48 361
E 48 400
E 48 433
E 48 455
E 49 53
E 49 67
E 49 79
E 49 94
E 49 97
E 49 125
E 49 313
E 49 384
E 49 396
E 49 430
E 49 449
E 49 473
E 49 480
E 50 63
E 50 74
E 50 160
E 50 165
E 50 268
E 50 293
E 50 302
E 50 306
E 50 349
E 50 444
E 50 483
E 51 51
E 51 55
E 51 106
E 51 244
E 51 275
E 51 291
E 51 342
E 51 498
E 52 55
E 52 135
E 52 151
E 52 174
E 52 188
E 52 244
E 52 275
E 52 291
E 52 342
E 52 498
E 53 99
E 53 144
E 53 152
E 53 333
E 53 367
E 53 370
E 53 411
E 53 458
E 54 67
E 54 125
E 54 323
E 54 384
E 54 396
E 54 430
E 54 441
E 54 447
E 54 449
E 55 168
E 55 171
E 55 236
E 55 257
E 55 280
E 55 395
E 55 406
E 55 494
E 56 135
E 56 151
E 56 174
E 56 188
E 56 198
E 56 275
E 56 291
E 56 342
E 56 498
E 57 81
E 57 149
E 57 175
E 57 226
E 57 328
E 57 359
E 57 409
E 58 90
E 58 93
E 58 122
E 58 199
E 58 205
E 58 239
E 58 251
E 58 267
E 58 362
E 58 391
E 58 425
E 58 453
E 58 461
E 58 466
E 59 76
E 59 149
E 59 164
E 59 165
E 59 330
E 59 375
E 59 439
E 59 493
E 60 95
E 60 153
E 60 246
E 60 292
E 60 303
E 60 369
E 60 407
E 61 63
E 61 212
E 61 336
E 61 349
E 61 370
E 61 435
E 61 439
E 61 459
E 61 493
E 62 133
E 62 240
E 62 352
E 62 414
E 63 118
E 63 139
E 63 227
E 63 230
E 63 232
E 63 277
E 63 286
E 63 307
E 63 315
E 63 356
E 63 377
E 63 380
E 63 390
E 63 398
E 63 416
E 63 445
E 63 477
E 64 149
E 64 160
E 64 165
E 64 268
E 64 293
E 64 306
E 64 330
E 64 349
E 64 444
E 64 483
E 65 105
E 65 109
E 65 137
E 65 143
E 65 169
E 65 248
E 65 265
E 65 298
E 65 389
E 65 392
E 66 225
E 66 388
E 66 475
E 66 496
E 67 184
E 67 228
E 67 270
E 67 413
E 67 456
E 67 476
E 68 125
E 68 384
E 68 386
E 68 430
E 68 441
E 68 447
E 68 449
E 69 253
E 69 273
E 69 382
E 69 474
E 69 484
E 70 119
E 70 124
E 70 157
E 70 159
E 70 161
E 70 167
E 70 190
E 70 259
E 70 412
E 71 157
E 71 159
E 71 202
E 71 282
E 71 316
E 71 368
E 72 76
E 72 111
E 72 283
E 72 320
E 72 459
E 72 485
E 73 98
E 73 100
E 73 141
E 73 187
E 73 215
E 73 402
E 73 436
E 73 465
E 74 283
E 74 363
E 75 126
E 75 149
E 75 160
E 75 165
E 75 178
E 75 196
E 75 301
E 75 306
E 75 338
E 75 483
E 76 87
E 76 112
E 76 120
E 76 170
E 76 254
E 76 347
E 76 354
E 77 242
E 77 320
E 77 330
E 77 336
E 77 439
E 77 459
E 77 493
E 78 103
E 78 121
E 78 129
E 78 211
E 78 214
E 78 218
E 78 340
E 78 415
E 78 423
E 79 219
E 79 304
E 79 393
E 80 94
E 80 97
E 80 266
E 80 329
E 80 394
E 80 405
E 80 427
E 80 428
E 80 432
E 80 473
E 80 480
E 81 191
E 81 216
E 81 221
E 81 272
E 81 402
E 81 463
E 82 88
E 82 130
E 82 175
E 82 226
E 82 328
E 82 359
E 82 395
E 82 409
E 82 443
E 83 102
E 83 272
E 83 300
E 83 345
E 83 346
E 83 437
E 83 463
E 84 128
E 84 193
E 84 225
E 84 241
E 84 337
E 84 339
E 84 348
E 84 351
E 84 475
E 84 496
E 85 87
E 85 120
E 85 170
E 85 229
E 85 243
E 85 299
E 85 350
E 85 467
E 86 147
E 86 208
E 86 237
E 86 249
E 86 379
E 86 478
E 87 154
E 87 181
E 87 222
E 87 262
E 87 279
E 87 312
E 87 321
E 87 397
E 87 434
E 87 499
E 88 120
E 88 170
E 88 229
E 88 243
E 88 254
E 88 354
E 88 433
E 89 136
E 89 146
E 89 226
E 89 280
E 89 381
E 89 418
E 89 442
E 89 450
E 90 118
E 90 123
E 90 127
E 90 220
E 90 232
E 90 269
E 90 277
E 90 315
E 90 327
E 90 332
E 90 356
E 90 380
E 90 398
E 90 413
E 90 416
E 90 456
E 91 93
E 91 122
E 91 134
E 91 192
E 91 235
E 91 239
E 91 267
E 91 362
E 91 425
E 91 461
E 92 138
E 92 177
E 92 201
E 92 207
E 92 295
E 93 117
E 93 183
E 93 185
E 93 245
E 93 344
E 93 378
E 93 468
E 94 122
E 94 179
E 94 205
E 94 235
E 94 239
E 94 267
E 94 310
E 94 357
E 94 391
E 94 461
E 94 490
E 95 97
E 95 266
E 95 313
E 95 329
E 95 427
E 95 432
E 95 473
E 95 480
E 96 109
E 96 153
E 96 189
E 96 248
E 96 265
E 96 298
E 96 373
E 96 389
E 96 407
E 97 126
E 97 196
E 97 226
E 97 286
E 97 307
E 97 338
E 97 409
E 97 418
E 97 445
E 97 477
E 98 125
E 98 221
E 98 266
E 98 329
E 98 405
E 98 432
E 98 473
E 98 480
E 99 100
E 99 113
E 99 187
E 99 215
E 99 386
E 99 402
E 99 436
E 99 462
E 100 144
E 100 152
E 100 333
E 100 367
E 100 370
E 100 411
E 100 458
E 100 472
E 101 113
E 101 141
E 101 187
E 101 215
E 101 386
E 101 402
E 101 436
E 101 462
E 102 261
E 102 302
E 102 331
E 102 372
E 102 429
E 102 444
E 103 156
E 103 221
E 103 272
E 103 345
E 103 405
E 103 437
E 103 463
E 104 107
E 104 121
E 104 200
E 104 214
E 104 305
E 104 340
E 104 401
E 104 415
E 105 132
E 105 176
E 105 217
E 105 281
E 105 289
E 105 371
E 105 408
E 105 410
E 105 420
E 105 426
E 105 457
E 105 468
E 106 137
E 106 143
E 106 154
E 106 169
E 106 222
E 106 288
E 106 298
E 106 312
E 106 397
E 107 244
E 108 214
E 108 274
E 108 305
E 108 415
E 109 163
E 109 173
E 109 180
E 109 186
E 109 224
E 109 229
E 109 233
E 109 252
E 109 258
E 109 299
E 109 303
E 109 319
E 109 322
E 109 369
E 109 376
E 109 400
E 109 454
E 109 455
E 109 487
E 110 153
E 110 189
E 110 248
E 110 265
E 110 298
E 110 324
E 110 373
E 110 389
E 110 407
E 110 451
E 111 206
E 111 225
E 111 234
E 111 241
E 111 355
E 111 452
E 111 475
E 111 496
E 112 204
E 112 283
E 112 363
E 113 120
E 113 194
E 113 254
E 113 347
E 113 354
E 113 403
E 114 187
E 114 215
E 114 335
E 114 386
E 114 402
E 114 436
E 114 441
E 114 462
E 115 116
E 115 178
E 115 255
E 115 301
E 115 302
E 115 331
E 116 142
E 116 209
E 116 314
E 116 368
E 116 422
E 116 438
E 116 471
E 116 486
E 117 123
E 117 127
E 117 184
E 117 255
E 117 269
E 117 277
E 117 331
E 117 356
E 117 456
E 118 183
E 118 195
E 118 344
E 118 378
E 118 381
E 118 382
E 118 448
E 118 450
E 118 484
E 119 123
E 119 127
E 119 220
E 119 232
E 119 255
E 119 269
E 119 277
E 119 307
E 119 315
E 119 356
E 119 380
E 119 398
E 119 413
E 119 416
E 119 456
E 120 124
E 120 140
E 120 157
E 120 159
E 120 161
E 120 167
E 120 190
E 120 202
E 120 259
E 120 276
E 121 170
E 121 229
E 121 254
E 121 347
E 121 354
E 121 433
E 122 129
E 122 150
E 122 200
E 122 211
E 122 214
E 122 340
E 122 401
E 122 410
E 122 415
E 122 420
E 122 421
E 123 134
E 123 199
E 123 235
E 123 239
E 123 251
E 123 267
E 123 362
E 123 425
E 123 453
E 123 461
E 124 127
E 124 228
E 124 232
E 124 255
E 124 269
E 124 277
E 124 307
E 124 315
E 124 356
E 124 380
E 124 413
E 124 456
E 125 152
E 125 159
E 125 161
E 125 167
E 125 190
E 125 259
E 125 367
E 125 412
E 126 313
E 126 384
E 126 430
E 126 449
E 126 473
E 126 480
E 127 178
E 127 196
E 127 301
E 127 338
E 127 409
E 127 483
E 128 232
E 128 255
E 128 269
E 128 277
E 128 307
E 128 315
E 128 356
E 128 380
E 128 413
E 128 456
E 129 193
E 129 264
E 129 287
E 129 337
E 129 348
E 129 351
E 129 479
E 130 139
E 130 211
E 130 327
E 130 332
E 130 340
E 130 420
E 130 421
E 131 155
E 131 168
E 131 171
E 131 175
E 131 236
E 131 257
E 131 260
E 131 328
E 131 395
E 131 443
E 131 494
E 132 294
E 132 388
E 132 394
E 132 482
E 132 491
E 133 150
E 133 217
E 133 289
E 133 318
E 133 408
E 133 410
E 133 420
E 133 426
E 134 284
E 134 290
E 134 352
E 134 414
E 135 192
E 135 235
E 135 335
E 135 362
E 135 425
E 136 151
E 136 174
E 136 188
E 136 231
E 136 275
E 136 291
E 136 350
E 136 498
E 137 146
E 137 183
E 137 195
E 137 280
E 137 381
E 137 418
E 137 442
E 137 450
E 138 143
E 138 154
E 138 169
E 138 288
E 138 298
E 138 312
E 139 148
E 139 177
E 139 201
E 139 207
E 139 295
E 139 365
E 139 490
E 139 497
E 140 220
E 140 227
E 140 315
E 140 327
E 140 332
E 140 371
E 140 377
E 140 380
E 140 390
E 140 398
E 140 416
E 141 159
E 141 161
E 141 202
E 141 259
E 141 276
E 141 417
E 141 422
E 141 438
E 142 181
E 142 187
E 142 215
E 142 316
E 142 434
E 142 436
E 142 465
E 143 314
E 143 422
E 143 438
E 143 471
E 143 486
E 144 154
E 144 169
E 144 288
E 144 298
E 144 312
E 145 333
E 145 336
E 145 370
E 145 411
E 145 458
E 145 472
E 145 485
E 146 185
E 146 253
E 146 317
E 146 325
E 146 341
E 146 343
E 146 344
E 146 382
E 147 195
E 147 257
E 147 280
E 147 381
E 147 418
E 147 442
E 147 450
E 148 208
E 148 237
E 148 249
E 148 379
E 148 478
E 149 201
E 149 205
E 149 207
E 149 295
E 149 310
E 149 357
E 149 365
E 149 391
E 149 490
E 149 497
E 150 165
E 150 306
E 150 330
E 150 359
E 150 483
E 151 200
E 151 217
E 151 318
E 151 401
E 151 410
E 151 420
E 151 421
E 152 174
E 152 188
E 152 231
E 152 291
E 152 309
E 152 350
E 152 399
E 153 333
E 153 346
E 153 367
E 153 370
E 153 411
E 153 458
E 154 233
E 154 303
E 154 319
E 154 369
E 154 373
E 154 376
E 154 407
E 155 199
E 155 251
E 155 288
E 155 312
E 155 321
E 156 171
E 156 175
E 156 260
E 156 328
E 156 359
E 156 383
E 157 287
E 157 294
E 157 329
E 157 345
E 157 394
E 157 405
E 157 437
E 158 159
E 158 167
E 158 202
E 159 211
E 159 332
E 159 353
E 159 470
E 159 481
E 160 167
E 160 202
E 160 259
E 161 165
E 161 302
E 161 306
E 161 349
E 161 444
E 161 483
E 162 167
E 162 259
E 162 268
E 162 276
E 162 293
E 162 367
E 162 417
E 162 435
E 163 247
E 163 299
E 163 364
E 163 387
E 163 467
E 163 487
E 163 488
E 164 173
E 164 180
E 164 186
E 164 224
E 164 229
E 164 233
E 164 252
E 164 258
E 164 299
E 164 303
E 164 319
E 164 322
E 164 369
E 164 376
E 164 400
E 164 433
E 164 454
E 164 455
E 164 487
E 165 242
E 165 256
E 165 330
E 165 359
E 165 375
E 165 383
E 166 306
E 166 330
E 166 349
E 166 483
E 166 493
E 167 197
E 167 271
E 167 285
E 167 311
E 167 326
E 167 360
E 167 385
E 167 403
E 167 470
E 168 190
E 168 202
E 168 259
E 168 412
E 169 171
E 169 236
E 169 257
E 169 395
E 169 443
E 169 494
E 170 222
E 170 248
E 170 298
E 170 312
E 170 397
E 171 229
E 171 243
E 171 254
E 171 350
E 171 354
E 172 236
E 172 257
E 172 260
E 172 328
E 172 395
E 172 443
E 172 494
E 173 250
E 173 265
E 173 278
E 173 296
E 173 334
E 173 366
E 173 392
E 173 440
E 174 224
E 174 299
E 174 319
E 174 322
E 174 376
E 174 387
E 174 454
E 174 455
E 174 487
E 175 188
E 175 275
E 175 291
E 175 350
E 175 498
E 176 328
E 176 359
E 176 395
E 176 443
E 177 227
E 177 230
E 177 245
E 177 281
E 177 289
E 177 371
E 177 377
E 177 390
E 177 457
E 177 468
E 178 201
E 178 207
E 179 196
E 179 255
E 179 301
E 179 307
E 179 338
E 179 409
E 179 483
E 180 213
E 180 310
E 180 357
E 180 365
E 180 490
E 181 186
E 181 229
E 181 252
E 181 258
E 181 361
E 181 400
E 181 433
E 181 454
E 181 455
E 182 308
E 182 316
E 182 321
E 182 434
E 182 465
E 182 499
E 183 238
E 183 270
E 183 285
E 183 297
E 183 326
E 183 492
E 184 230
E 184 245
E 184 378
E 184 381
E 184 418
E 184 442
E 184 450
E 184 477
E 185 228
E 185 331
E 185 372
E 185 429
E 185 476
E 186 245
E 186 281
E 186 317
E 186 325
E 186 341
E 186 343
E 186 344
E 186 382
E 186 426
E 186 457
E 186 468
E 187 224
E 187 229
E 187 252
E 187 258
E 187 400
E 187 433
E 187 454
E 187 455
E 188 215
E 188 335
E 188 402
E 188 436
E 188 462
E 188 465
E 189 275
E 189 291
E 189 342
E 189 350
E 189 498
E 190 223
E 190 248
E 190 265
E 190 324
E 190 373
E 190 389
E 190 451
E 190 469
E 191 191
E 191 216
E 191 346
E 191 367
E 191 412
E 192 216
E 192 272
E 192 346
E 192 412
E 192 463
E 193 235
E 193 441
E 193 447
E 194 264
E 194 287
E 194 337
E 194 348
E 194 351
E 194 388
E 194 479
E 195 311
E 195 347
E 195 379
E 195 385
E 195 403
E 196 210
E 196 280
E 196 378
E 196 381
E 196 448
E 196 450
E 197 301
E 197 338
E 197 409
E 197 483
E 198 208
E 198 218
E 198 271
E 198 360
E 198 379
E 198 385
E 199 275
E 199 342
E 199 379
E 199 478
E 200 251
E 200 288
E 200 312
E 200 362
E 200 425
E 200 453
E 201 214
E 201 305
E 201 318
E 201 401
E 201 415
E 202 207
E 202 295
E 202 497
E 203 259
E 203 276
E 203 422
E 204 250
E 204 278
E 204 466
E 205 283
E 205 339
E 205 424
E 205 464
E 206 239
E 206 267
E 206 310
E 206 357
E 206 365
E 206 391
E 206 461
E 206 466
E 206 490
E 206 497
E 207 225
E 207 234
E 207 241
E 207 337
E 207 431
E 207 452
E 207 475
E 207 496
E 208 295
E 209 237
E 209 379
E 209 478
E 210 282
E 210 308
E 210 368
E 210 404
E 210 486
E 211 273
E 211 448
E 211 474
E 211 484
E 212 332
E 212 340
E 212 481
E 213 268
E 213 293
E 213 333
E 213 336
E 213 367
E 213 370
E 213 435
E 215 305
E 215 340
E 215 401
E 215 415
E 215 421
E 216 335
E 216 386
E 216 402
E 216 436
E 216 462
E 216 465
E 217 272
E 217 346
E 217 412
E 217 463
E 218 281
E 218 289
E 218 318
E 218 371
E 218 408
E 218 410
E 218 420
E 218 426
E 218 457
E 219 271
E 219 423
E 220 231
E 220 304
E 220 393
E 221 277
E 221 315
E 221 327
E 221 332
E 221 380
E 221 398
E 221 416
E 221 481
E 222 266
E 222 272
E 222 329
E 222 345
E 222 405
E 222 463
E 222 473
E 223 246
E 223 262
E 223 279
E 223 298
E 223 312
E 223 374
E 223 397
E 224 265
E 224 296
E 224 324
E 224 366
E 224 373
E 224 440
E 224 451
E 224 469
E 225 229
E 225 252
E 225 258
E 225 299
E 225 322
E 225 387
E 225 400
E 225 454
E 225 455
E 225 487
E 226 241
E 226 337
E 226 351
E 226 388
E 226 452
E 226 475
E 226 496
E 227 409
E 227 442
E 228 230
E 228 327
E 228 371
E 228 377
E 228 380
E 228 390
E 228 398
E 228 416
E 228 445
E 228 477
E 229 269
E 229 413
E 229 456
E 229 476
E 230 252
E 230 258
E 230 299
E 230 354
E 230 400
E 230 433
E 230 455
E 231 286
E 231 377
E 231 390
E 231 398
E 231 416
E 231 418
E 231 445
E 231 477
E 232 309
E 232 350
E 232 399
E 233 255
E 233 269
E 233 277
E 233 307
E 233 315
E 233 356
E 233 380
E 233 398
E 233 416
E 233 456
E 234 303
E 234 319
E 234 369
E 234 376
E 234 454
E 234 455
E 235 241
E 235 355
E 235 452
E 235 496
E 236 239
E 236 267
E 236 362
E 236 425
E 236 461
E 237 257
E 237 395
E 237 494
E 238 249
E 238 379
E 238 478
E 239 270
E 239 285
E 239 297
E 239 326
E 239 492
E 240 267
E 240 362
E 240 391
E 240 425
E 240 453
E 240 461
E 241 246
E 241 292
E 241 414
E 241 495
E 242 337
E 242 339
E 242 351
E 242 452
E 242 475
E 242 496
E 243 256
E 243 320
E 243 375
E 243 383
E 243 446
E 244 309
E 244 350
E 244 364
E 244 399
E 244 467
E 244 488
E 245 275
E 245 342
E 245 498
E 246 281
E 246 344
E 246 457
E 246 468
E 247 262
E 247 279
E 247 292
E 247 374
E 247 397
E 247 407
E 248 309
E 248 364
E 248 399
E 248 467
E 248 488
E 249 265
E 249 298
E 249 389
E 249 407
E 249 451
E 250 274
E 251 278
E 251 334
E 252 288
E 252 312
E 252 362
E 252 425
E 252 453
E 252 461
E 253 258
E 253 361
E 253 400
E 253 433
E 253 454
E 253 455
E 254 317
E 254 325
E 254 344
E 254 382
E 254 474
E 254 484
E 255 347
E 255 354
E 256 269
E 256 277
E 256 301
E 256 307
E 256 356
E 256 456
E 257 375
E 257 383
E 257 446
E 258 280
E 258 395
E 258 443
E 258 494
E 259 361
E 259 400
E 259 433
E 259 454
E 259 455
E 260 268
E 260 276
E 260 417
E 261 328
E 261 383
E 261 446
E 262 302
E 262 331
E 262 372
E 262 429
E 262 444
E 263 279
E 263 374
E 263 397
E 263 499
E 264 323
E 264 447
E 265 287
E 265 300
E 265 348
E 265 472
E 265 479
E 265 489
E 266 296
E 266 298
E 266 324
E 266 366
E 266 373
E 266 389
E 266 392
E 266 451
E 267 329
E 267 394
E 267 405
E 267 427
E 267 428
E 267 432
E 267 473
E 267 480
E 268 362
E 268 391
E 268 425
E 268 453
E 268 461
E 269 276
E 269 293
E 269 349
E 269 417
E 269 435
E 269 444
E 270 277
E 270 307
E 270 315
E 270 356
E 270 380
E 270 413
E 270 456
E 271 326
E 271 476
E 272 360
E 272 385
E 272 423
E 272 470
E 273 345
E 273 346
E 273 463
E 274 448
E 274 474
E 274 484
E 275 305
E 276 291
E 276 342
E 276 478
E 276 498
E 277 293
E 277 417
E 278 307
E 278 315
E 278 356
E 278 380
E 278 398
E 278 413
E 278 416
E 278 456
E 279 296
E 279 334
E 279 366
E 279 392
E 279 440
E 280 374
E 280 397
E 280 495
E 280 499
E 281 395
E 281 442
E 281 443
E 281 450
E 282 289
E 282 371
E 282 426
E 282 457
E 282 468
E 283 308
E 283 316
E 283 368
E 284 363
E 285 290
E 285 314
E 285 352
E 286 297
E 286 311
E 286 326
E 286 360
E 286 403
E 286 492
E 287 307
E 287 377
E 287 416
E 287 418
E 287 445
E 287 477
E 288 294
E 288 300
E 288 348
E 288 437
E 288 479
E 289 312
E 289 362
E 289 453
E 290 371
E 290 410
E 290 420
E 290 426
E 290 457
E 291 314
E 291 404
E 291 486
E 292 498
E 293 407
E 293 414
E 294 349
E 294 417
E 294 435
E 294 444
E 295 394
E 295 405
E 295 427
E 295 428
E 295 437
E 295 482
E 295 491
E 296 365
E 296 490
E 296 497
E 297 366
E 297 389
E 297 392
E 297 440
E 297 451
E 298 347
E 298 358
E 298 492
E 299 389
E 299 407
E 300 322
E 300 387
E 300 400
E 300 455
E 300 487
E 301 348
E 301 437
E 301 472
E 301 479
E 301 489
E 302 302
E 302 307
E 302 338
E 302 483
E 303 306
E 303 331
E 303 444
E 303 483
E 304 319
E 304 369
E 304 376
E 304 454
E 304 455
E 305 393
E 306 415
E 307 349
E 307 444
E 307 483
E 308 338
E 308 356
E 308 380
E 308 416
E 308 445
E 309 316
E 309 368
E 309 499
E 310 350
E 310 364
E 310 399
E 310 467
E 310 488
E 311 357
E 311 365
E 311 490
E 312 347
E 312 360
E 312 379
E 312 385
E 312 403
E 313 397
E 314 396
E 314 430
E 314 480
E 315 422
E 315 438
E 315 471
E 315 486
E 316 327
E 316 332
E 316 356
E 316 380
E 316 398
E 316 413
E 316 416
E 316 456
E 317 368
E 317 434
E 317 465
E 318 325
E 318 341
E 318 343
E 318 344
E 318 382
E 319 401
E 319 410
E 320 322
E 320 369
E 320 376
E 320 454
E 321 439
E 321 459
E 322 335
E 322 434
E 322 465
E 323 376
E 323 387
E 323 487
E 324 396
E 324 430
E 325 373
E 325 451
E 325 469
E 326 343
E 326 344
E 326 382
E 326 474
E 327 353
E 327 360
E 327 470
E 327 492
E 328 332
E 328 380
E 328 390
E 328 398
E 328 416
E 329 359
E 329 383
E 329 395
E 329 443
E 330 394
E 330 405
E 330 427
E 330 428
E 330 432
E 330 473
E 330 480
E 331 349
E 331 375
E 331 439
E 331 493
E 332 372
E 332 429
E 333 481
E 334 367
E 334 370
E 334 411
E 334 435
E 334 458
E 335 366
E 335 440
E 336 462
E 337 370
E 337 439
E 337 459
E 337 485
E 337 493
E 338 339
E 338 351
E 338 475
E 338 496
E 339 409
E 339 483
E 340 351
E 340 424
E 340 464
E 341 415
E 341 421
E 342 343
E 342 408
E 342 426
E 342 457
E 343 478
E 343 498
E 344 344
E 344 426
E 344 457
E 344 468
E 345 378
E 345 382
E 345 474
E 345 484
E 346 346
E 346 437
E 346 463
E 347 411
E 347 412
E 347 458
E 347 463
E 348 354
E 348 358
E 348 403
E 349 351
E 349 472
E 349 479
E 349 489
E 350 444
E 350 483
E 351 364
E 351 399
E 351 467
E 352 475
E 352 496
E 353 414
E 354 470
E 354 481
E 355 433
E 356 452
E 357 380
E 357 416
E 357 456
E 358 365
E 358 391
E 358 490
E 359 361
E 359 492
E 360 375
E 360 383
E 361 385
E 361 403
E 361 470
E 362 433
E 363 425
E 363 453
E 363 461
E 364 419
E 365 399
E 365 467
E 365 488
E 366 490
E 367 392
E 367 440
E 367 451
E 368 370
E 368 411
E 368 435
E 368 458
E 369 486
E 370 376
E 370 454
E 370 455
E 371 411
E 371 458
E 372 390
E 372 410
E 372 420
E 372 421
E 373 429
E 373 438
E 373 476
E 374 451
E 374 469
E 375 397
E 375 495
E 375 499
E 376 383
E 376 439
E 377 454
E 377 455
E 378 380
E 378 390
E 378 398
E 378 416
E 378 445
E 378 477
E 379 382
E 379 448
E 379 474
E 379 484
E 380 385
E 380 478
E 381 390
E 381 398
E 381 416
E 382 418
E 382 442
E 382 450
E 383 474
E 383 484
E 384 446
E 385 386
E 385 430
E 385 441
E 385 447
E 385 449
E 386 403
E 386 470
E 387 402
E 387 436
E 387 441
E 387 449
E 387 462
E 388 487
E 389 482
E 390 392
E 390 451
E 391 398
E 391 416
E 391 477
E 392 453
E 392 461
E 392 466
E 392 497
E 393 440
E 393 451
E 395 405
E 395 427
E 395 428
E 395 432
E 395 482
E 395 491
E 396 443
E 396 494
E 397 430
E 398 499
E 399 416
E 400 467
E 400 488
E 401 433
E 401 454
E 401 455
E 402 410
E 402 415
E 402 421
E 403 436
E 405 486
E 405 495
E 406 427
E 406 428
E 406 432
E 406 473
E 406 480
E 407 460
E 409 426
E 411 420
E 411 421
E 412 458
E 412 472
E 414 456
E 416 423
E 417 445
E 417 477
E 418 435
E 418 444
E 419 442
E 419 445
E 419 450
E 419 477
E 420 424
E 420 431
E 420 464
E 421 421
E 423 429
E 423 438
E 423 471
E 425 431
E 425 464
E 426 461
E 427 457
E 427 468
E 428 428
E 428 432
E 428 480
E 428 482
E 428 491
E 429 432
E 429 482
E 429 491
E 430 438
E 431 449
E 432 464
E 433 473
E 433 480
E 433 491
E 434 455
E 435 465
E 435 499
E 437 462
E 439 471
E 440 459
E 440 493
E 442 447
E 442 449
E 442 462
E 443 450
E 446 477
E 448 462
E 449 450
E 449 474
E 449 484
E 452 469
E 453 475
E 453 496
E 454 461
E 454 466
E 455 455
E 456 487
E 458 468
E 460 485
E 460 493
E 467 497
E 468 488
E 472 486
E 473 479
E 473 489
E 474 480
E 475 484
E 476 496
E 480 489
E 483 491
E 19 445
E 97 178
E 130 371
E 170 262
E 197 226
E 209 249
E 217 345
E 306 423
E 321 493
E 328 371
E 382 477
E 6 254
E 19 442
E 28 152
E 48 120
E 127 306
E 287 442
E 288 489
E 291 352
E 473 485
E 12 138
E 28 212
E 44 391
E 157 491
E 190 296
E 227 443
E 414 481
E 156 164
E 157 427
E 178 295
E 336 465
E 376 493
E 403 462
E 15 302
E 63 89
E 152 498
E 201 421
E 211 460
E 257 320
E 338 452
E 25 424
E 41 268
E 44 362
E 64 212
E 65 189
E 174 400
E 244 247
E 266 440
E 380 403
E 24 141
E 75 409
E 96 324
E 135 462
E 165 439
E 309 434
E 341 401
E 347 367
E 41 140
E 139 205
E 153 190
E 157 428
E 175 243
E 186 378
E 200 461
E 264 396
E 288 388
E 326 341
E 70 70
E 71 167
E 109 433
E 116 202
E 166 439
E 201 340
E 210 316
E 211 378
E 32 405
E 44 267
E 100 346
E 206 295
E 291 495
E 326 484
E 23 36
E 61 330
E 73 113
E 85 354
E 136 309
E 190 298
E 443 477
E 26 344
E 54 263
E 83 156
E 90 139
E 135 441
E 150 349
E 173 389
E 311 391
E 428 473
E 9 12
E 25 128
E 25 348
E 41 152
E 45 197
E 80 125
E 147 443
E 190 392
E 193 263
E 277 422
E 389 475
E 9 366
E 23 191
E 96 451
E 144 251
E 161 301
E 271 353
E 26 230
E 57 74
E 61 293
E 62 361
E 68 396
E 115 261
E 151 289
E 372 457
E 16 224
E 151 214
E 246 426
E 274 382
E 17 465
E 102 438
E 162 333
E 176 226
E 219 415
E 235 431
E 5 195
E 23 329
E 48 454
E 59 359
E 69 210
E 102 422
E 135 447
E 157 266
E 194 225
E 224 392
E 47 411
E 54 313
E 120 367
E 200 321
E 212 327
E 227 418
E 234 322
E 336 434
E 22 26
E 38 160
E 70 202
E 93 176
E 118 136
E 145 152
E 252 466
E 283 486
E 441 451
END

SECTION Terminals
Terminals  500
T 1 -9.06531
T 2 -8.04127
T 3 -8.72784
T 4 -8.92554
T 5 -9.72928
T 6 0
T 7 0
T 8 -4.26903
T 9 -6.27823
T 10 5.69131
T 11 -6.33293
T 12 6.26891
T 13 -1.69607
T 14 -7.53739
T 15 -6.29534
T 16 -5.92832
T 17 0
T 18 -0.327622
T 19 -9.14538
T 20 -0.848927
T 21 -5.18165
T 22 0
T 23 -3.96157
T 24 3.11214
T 25 -2.10015
T 26 -0.129097
T 27 -6.45441
T 28 -9.23662
T 29 -0.426075
T 30 -7.15891
T 31 -4.30167
T 32 0
T 33 -5.6354
T 34 0
T 35 -1.53806
T 36 0
T 37 7.23776
T 38 -4.243
T 39 2.92884
T 40 0
T 41 0
T 42 1.00874
T 43 -4.64196
T 44 -6.5493
T 45 -2.48945
T 46 -4.12054
T 47 -8.47503
T 48 -6.59888
T 49 8.14976
T 50 -6.86592
T 51 -5.62819
T 52 0
T 53 -8.81578
T 54 -8.07928
T 55 0
T 56 -6.30398
T 57 4.17035
T 58 -6.06767
T 59 0
T 60 0
T 61 0
T 62 -5.85716
T 63 -1.78989
T 64 -7.84647
T 65 -3.45863
T 66 -2.16834
T 67 -1.5103
T 68 -6.80856
T 69 -5.23502
T 70 -0.0867057
T 71 -6.70872
T 72 -9.59659
T 73 -2.73965
T 74 -5.84497
T 75 -0.71713
T 76 0
T 77 0
T 78 0
T 79 0
T 80 -2.51307
T 81 0
T 82 -9.42774
T 83 0
T 84 1.81294
T 85 0
T 86 0
T 87 -9.33723
T 88 -6.00151
T 89 -9.10029
T 90 0.391366
T 91 0
T 92 -4.04846
T 93 0
T 94 -2.02406
T 95 0
T 96 -8.29882
T 97 6.09089
T 98 -3.9154
T 99 0
T 100 0
T 101 0
T 102 0
T 103 -3.57091
T 104 -9.50778
T 105 8.71852
T 106 0
T 107 -3.83082
T 108 -6.41511
T 109 0
T 110 -4.70545
T 111 -5.61856
T 112 -9.84285
T 113 -0.691277
T 114 -4.23274
T 115 -7.17536
T 116 -4.19594
T 117 5.12836
T 118 2.11282
T 119 -6.08051
T 120 4.62229
T 121 -6.5798
T 122 -9.07311
T 123 0
T 124 -3.0783
T 125 -5.21579
T 126 -3.73912
T 127 6.14009
T 128 -2.67403
T 129 -6.03204
T 130 -7.82256
T 131 5.35063
T 132 0
T 133 7.24519
T 134 -3.97202
T 135 -9.17642
T 136 -7.21307
T 137 -6.85243
T 138 -0.482902
T 139 -9.78868
T 140 0
T 141 8.71723
T 142 -8.04236
T 143 -5.58808
T 144 0
T 145 0
T 146 4.07108
T 147 -1.69429
T 148 0
T 149 -8.17475
T 150 -3.44503
T 151 1.37306
T 152 -2.34607
T 153 0
T 154 0
T 155 0
T 156 -6.04245
T 157 0
T 158 5.61665
T 159 -9.20054
T 160 9.23438
T 161 7.0035
T 162 -3.94434
T 163 -2.27868
T 164 0
T 165 -9.14266
T 166 -2.63425
T 167 -3.34879
T 168 -2.50365
T 169 7.98822
T 170 -0.621141
T 171 -8.46605
T 172 0
T 173 -2.16897
T 174 -6.00619
T 175 -3.68586
T 176 0
T 177 -7.82869
T 178 -4.91518
T 179 -3.85464
T 180 5.82296
T 181 -7.75049
T 182 -6.40422
T 183 -6.54273
T 184 0
T 185 -6.79505
T 186 -1.37393
T 187 -6.84971
T 188 0
T 189 9.88761
T 190 -7.73677
T 191 -1.36309
T 192 3.66533
T 193 -7.47051
T 194 -3.47734
T 195 -1.1242
T 196 0
T 197 -0.212187
T 198 -8.59557
T 199 -7.86468
T 200 -0.66421
T 201 0
T 202 -8.05856
T 203 0
T 204 -8.52559
T 205 0
T 206 3.27476
T 207 0
T 208 -5.13377
T 209 -0.0475049
T 210 0
T 211 -9.21138
T 212 -6.28262
T 213 -5.86436
T 214 7.23036
T 215 0
T 216 -7.68719
T 217 -1.02218
T 218 0
T 219 3.31681
T 220 -5.65084
T 221 -7.20149
T 222 0
T 223 0
T 224 -6.41926
T 225 -5.0803
T 226 0
T 227 -1.68589
T 228 0
T 229 6.9981
T 230 0
T 231 -4.3326
T 232 -6.66918
T 233 0
T 234 5.05244
T 235 0
T 236 0
T 237 0
T 238 0.228747
T 239 -3.58205
T 240 0
T 241 -2.06512
T 242 -9.15987
T 243 -8.81561
T 244 -5.973
T 245 0
T 246 -1.18114
T 247 9.20594
T 248 -2.47523
T 249 -6.48193
T 250 -2.36715
T 251 -5.64713
T 252 -1.89294
T 253 -8.07809
T 254 -7.90969
T 255 0
T 256 -6.7721
T 257 7.75885
T 258 0
T 259 6.38978
T 260 -1.17249
T 261 -9.07909
T 262 -5.40779
T 263 -0.601297
T 264 -4.00271
T 265 0
T 266 6.42387
T 267 -0.385458
T 268 -3.0317
T 269 6.66721
T 270 -7.21339
T 271 -1.61384
T 272 -3.22938
T 273 2.6634
T 274 -8.93439
T 275 0
T 276 -3.13616
T 277 9.17702
T 278 5.36552
T 279 0
T 280 -1.43387
T 281 -9.64809
T 282 -4.20861
T 283 0
T 284 0
T 285 6.10182
T 286 0
T 287 8.33196
T 288 -2.97507
T 289 6.70281
T 290 -4.97504
T 291 0.912317
T 292 0.425239
T 293 -3.17281
T 294 2.4435
T 295 7.60851
T 296 -6.29518
T 297 0
T 298 -2.07611
T 299 0
T 300 -1.52912
T 301 -8.21819
T 302 -4.50756
T 303 0
T 304 -1.39971
T 305 0
T 306 -0.594662
T 307 0
T 308 -2.78607
T 309 -8.90054
T 310 0
T 311 -6.87413
T 312 -2.24119
T 313 0.142625
T 314 2.51641
T 315 -0.0408632
T 316 -0.41893
T 317 -9.41493
T 318 -6.44745
T 319 -4.97843
T 320 3.91369
T 321 8.4558
T 322 0
T 323 -4.55923
T 324 0
T 325 3.28662
T 326 -0.58024
T 327 0
T 328 -6.99302
T 329 0
T 330 -7.85319
T 331 0
T 332 -4.113
T 333 0
T 334 0
T 335 -5.38312
T 336 0
T 337 -2.10471
T 338 -0.456455
T 339 -8.68937
T 340 -7.2819
T 341 0
T 342 -1.92466
T 343 0
T 344 -3.71857
T 345 -9.60244
T 346 -5.55772
T 347 -6.97954
T 348 -4.23217
T 349 -1.30436
T 350 4.62663
T 351 0
T 352 -5.14365
T 353 -1.94232
T 354 -6.15801
T 355 3.01428
T 356 -3.56689
T 357 7.37601
T 358 9.8097
T 359 0.723445
T 360 4.24224
T 361 0
T 362 -5.0579
T 363 -9.18048
T 364 6.45053
T 365 9.79451
T 366 -2.64072
T 367 -0.333969
T 368 0
T 369 -4.64697
T 370 -3.70279
T 371 0
T 372 -7.56653
T 373 0
T 374 0.119844
T 375 0
T 376 -5.51171
T 377 -0.360327
T 378 -9.88603
T 379 -7.7154
T 380 -4.10516
T 381 -2.94775
T 382 2.99978
T 383 -1.83235
T 384 0
T 385 9.665
T 386 0.398109
T 387 -5.23704
T 388 7.77492
T 389 0
T 390 -7.92082
T 391 -3.65218
T 392 0
T 393 -9.05427
T 394 -4.26633
T 395 -4.27362
T 396 6.22174
T 397 0
T 398 0
T 399 -4.0424
T 400 0
T 401 -8.59194
T 402 -4.57422
T 403 -6.00929
T 404 3.48893
T 405 -0.674704
T 406 -6.9657
T 407 -0.429131
T 408 -5.77579
T 409 -0.185197
T 410 -7.82596
T 411 9.10097
T 412 -9.16134
T 413 -4.49128
T 414 1.75821
T 415 -6.74275
T 416 -7.78854
T 417 0
T 418 0
T 419 9.85544
T 420 -7.40242
T 421 -2.98473
T 422 0
T 423 0
T 424 -3.38081
T 425 1.04521
T 426 0
T 427 -8.18821
T 428 -3.29405
T 429 8.64006
T 430 4.58227
T 431 -0.435537
T 432 -8.62345
T 433 -2.68389
T 434 0
T 435 0
T 436 -7.10851
T 437 0
T 438 0
T 439 0.691333
T 440 2.94979
T 441 3.21112
T 442 -5.4674
T 443 -2.47153
T 444 0
T 445 0
T 446 -3.76879
T 447 7.05445
T 448 -3.00252
T 449 -2.34628
T 450 0
T 451 0
T 452 6.90315
T 453 -6.61233
T 454 -5.89207
T 455 -7.68634
T 456 -2.3441
T 457 9.01151
T 458 -9.02776
T 459 0
T 460 -7.7446
T 461 -6.99529
T 462 9.30655
T 463 -2.83384
T 464 0
T 465 2.61601
T 466 -0.988402
T 467 -6.33127
T 468 -8.02378
T 469 -2.45515
T 470 3.74735
T 471 -3.38736
T 472 5.25403
T 473 6.40729
T 474 7.47552
T 475 -6.67014
T 476 -5.84461
T 477 -6.23008
T 478 -7.4164
T 479 0
T 480 -3.05082
T 481 0
T 482 -5.9516
T 483 8.1056
T 484 -1.04121
T 485 -7.62258
T 486 0
T 487 0
T 488 -5.79356
T 489 0
T 490 -9.97933
T 491 -8.7796
T 492 -8.89088
T 493 -6.3531
T 494 -7.82584
T 495 -2.87704
T 496 -8.19122
T 497 0
T 498 -3.2344
T 499 6.81672
T 500 -1.81646
END

EOF
